Version identifier: 22.1.1.0 | 2022-11-28 | 9160aff4d
CPXPARAM_Threads                                 1
CPXPARAM_MIP_Strategy_VariableSelect             3
CPXPARAM_TimeLimit                               599.99999239199997
1 of 1 MIP starts provided solutions.
MIP start 'm1' defined initial solution with objective 158.0000.
Tried aggregator 1 time.
MIP Presolve eliminated 421 rows and 1218 columns.
MIP Presolve modified 26 coefficients.
Reduced MIP has 2028 rows, 4060 columns, and 109048 nonzeros.
Reduced MIP has 4060 binaries, 0 generals, 0 SOSs, and 0 indicators.
Presolve time = 0.07 sec. (177.75 ticks)
Probing time = 0.01 sec. (15.45 ticks)
Tried aggregator 1 time.
Detecting symmetries...
MIP Presolve modified 8 coefficients.
Reduced MIP has 2028 rows, 4060 columns, and 109168 nonzeros.
Reduced MIP has 4060 binaries, 0 generals, 0 SOSs, and 0 indicators.
Presolve time = 0.08 sec. (162.48 ticks)
Probing time = 0.03 sec. (15.46 ticks)
Clique table members: 1213.
MIP emphasis: balance optimality and feasibility.
MIP search method: dynamic search.
Parallel mode: none, using 1 thread.
Root relaxation solution time = 0.06 sec. (49.21 ticks)

        Nodes                                         Cuts/
   Node  Left     Objective  IInf  Best Integer    Best Bound    ItCnt     Gap

*     0+    0                          158.0000    82621.0000              --- 
      0     0      406.0000   184      158.0000      406.0000      704  156.96%
*     0+    0                          406.0000      406.0000             0.00%
      0     0        cutoff            406.0000      406.0000      704    0.00%
Elapsed time = 0.47 sec. (610.37 ticks, tree = 0.01 MB, solutions = 2)

Root node processing (before b&c):
  Real time             =    0.47 sec. (610.58 ticks)
Sequential b&c:
  Real time             =    0.00 sec. (0.00 ticks)
                          ------------
Total (root+branch&cut) =    0.47 sec. (610.58 ticks)
Primal:	406
Dual:	406
Status:	Optimal
Time:	0.48
Sequence:
	1
	0
	3
	9
	0
	9
	9
	9
	0
	5
	9
	9
	0
	5
	9
	8
	9
	9
	0
	9
	9
	0
	9
	9
	0
	5
	9
	0
	9
	9
	0
	9
	1
	9
	0
	9
	9
	0
	9
	9
	0
	9
	5
	5
	9
	5
	5
	9
	5
	5
	0
	9
	5
	0
	5
	9
	5
	0
	5
	9
	5
	0
	9
	5
	0
	5
	9
	5
	5
	9
	5
	5
	0
	9
	5
	0
	5
	9
	5
	0
	5
	9
	0
	5
	9
	5
	5
	9
	0
	5
	5
	2
	5
	5
	9
	0
	9
	5
	4
	0
	5
	9
	1
	9
	0
	1
	5
	4
	0
	1
	4
	0
	1
	4
	0
	4
	6
	0
	5
	9
	0
	5
	4
	0
	4
	3
	4
	0
	5
	5
	9
	0
	5
	1
	8
	9
	4
	1
	3
	0
	4
	4
	0
	1
	9
	0
	1
	5
	2
	9
	5
	0
	4
	5
	0
	3
	9
	5
	0
	9
	1
	9
	9
	0
	1
	9
	0
	5
	9
	1
	1
	9
	0
	1
	9
	0
	9
	1
	0
	9
	5
	5
	9
	0
	5
	9
	0
	5
	1
	8
	3
	4
	0
	5
	5
	9
	0
	5
	9
	1
	0
	4
	1
	0
	9
	9
	0
	1
	1
	9
	1
	1
	0
	9
	9
	9
	0
	1
	9
	8
	9
	9
	0
	9
	5
	8
	9
	9
	9
	0
	9
	9
	0
	9
	9
	9
	0
	9
	9
	8
	9
	9
	9
	9
	0
	9
	5
	8
	9
	9
	8
	5
	9
	8
	9
	9
	9
	8
	1
	5
	8
	9
	9
	0
	9
	3
	1
	5
	8
	1
	1
	8
	5
	1
	5
	9
	0
	1
	5
	9
	5
	0
	9
	5
	1
	0
	9
	5
	9
	0
	1
	9
	8
	5
	9
	0
	5
	1
	8
	5
	9
	0
	5
	9
	0
	9
	9
	0
	9
	9
	0
	9
	9
	0
	9
	4
	0
	4
	9
	0
	9
	5
	8
	3
	9
	9
	0
	5
	9
	0
	9
	9
	9
	0
	9
	9
	5
	0
	1
	9
	9
	0
	9
	5
	9
	9
	0
	5
	9
	0
	9
	9
	0
	9
	5
	5
	0
	9
	9
	1
	0
	9
	9
	0
	5
	9
	0
	9
	9
	9
	0
	9
	9
	0
	9
	9
	9
	9
	0
	9
	5
	0
	9
	9
	9
	9
	0
	9
	4
	9
	0
	9
	9
	0
	9
	9
	0
	9
	9
	1
	1
	1
	9
	5
	0
	5
